n = 17;
budget = 300000;
groceries = [|66,216,96,83,3104|112,161,182,72,2670|98,238,91,146,2128|216,8,72,137,3464|270,9,90,63,1590|120,440,120,195,2415|65,150,45,73,2293|10,75,90,174,2411|15,355,105,130,2335|30,186,60,185,2309|48,138,48,54,2124|18,120,138,127,1291|60,90,530,58,1698|42,204,312,139,1876|10,150,180,126,3081|96,352,48,91,3969|42,288,180,165,1582|];
requirements = [|1140,1380|6000,6000|1710,1860|];
offset = [|114,276|3000,3900|427,651|];
variety = 7;